&CONTROL
 calculation = 'scf'
/
&SYSTEM
         nat = 3
        ntyp = 2
ecutwfc = 48.000000
nbnd = 10
/
CELL_PARAMETERS
 3.085000 0.000000 0.000000
 -1.542500 2.671688 0.000000
 0.000000 0.000000 3.523000
ATOMIC_SPECIES
 Mg Mg.rel-pbe-n-rrkjus_psl.0.3.0.UPF
 B B.rel-pbe-n-rrkjus_psl.0.1.UPF
ATOMIC_POSITIONS
 Mg 0.000000 0.000000 0.000000
 B 0.666667 0.333333 0.500000
 B 0.333333 0.666667 0.500000
K_POINTS
 14 14 10
