&CONTROL
 calculation = 'scf'
/
&SYSTEM
         nat = 2
        ntyp = 1
     ecutwfc = 30.000000
ecutrho = 120.000000
nbnd = 8
/
&ELECTRONS
 mixing_beta = 0.3
 conv_thr = 1.000000e-4
/
CELL_PARAMETERS
   3.185457285   0.000000000  -0.000000000
  -1.592728642   2.758686932  -0.000000000
   0.000000000  -0.000000000   5.169753097
ATOMIC_SPECIES
 Mg mg.lda.lps
ATOMIC_POSITIONS
 Mg 0.333333 0.666667 0.250000
 Mg 0.666667 0.333333 0.750000
K_POINTS
 9 9 6
