&control
 calculation = 'bands'
/
&system
       nat = 2, 
      ntyp = 1,
   ecutwfc = 30.0
ecutrho = 120.0,
nbnd = 10
/
&electrons
 mixing_beta = 0.3
conv_thr = 1.000000e-5
electron_maxstep = 100
/
CELL_PARAMETERS
 0.000000 2.733624 2.733624
 2.733624 0.000000 2.733624
 2.733624 2.733624 0.000000
ATOMIC_SPECIES
 Si  si.lda.lps
ATOMIC_POSITIONS
 Si 0.00 0.00 0.00
 Si 0.25 0.25 0.25
K_POINTS
5
0.000  0.000  0.000
0.500  0.000  0.000
0.625  0.375  0.000
0.500  0.500  0.000
0.000  0.000  0.000
