&CONTROL
 calculation = 'direct'
/
&SYSTEM
nbnd = 10
         nat = 1
        ntyp = 1
     ecutwfc = 30.000000
     ecutrho = 120.000000
/
&ELECTRONS
/
CELL_PARAMETERS
 0.000000 2.024700 2.024700
 2.024700 0.000000 2.024700
 2.024700 2.024700 0.000000
ATOMIC_SPECIES
 Al al.lda.lps
ATOMIC_POSITIONS
 Al 0.000000 0.000000 0.000000
K_POINTS
1
0.0 0.0 0.0
