&CONTROL
 calculation = 'scf'
  pseudo_dir = '/work/i0012/i001200/pseudo/'
/
&SYSTEM
       ibrav = 0
         nat = 1
        ntyp = 1
     ecutwfc = 50.000000
     ecutrho = 200.000000
 occupations = 'tetrahedra_opt'
/
&ELECTRONS
 mixing_beta = 0.3
 conv_thr = 1.000000e-10
/
CELL_PARAMETERS angstrom
 0.000000 2.024700 2.024700
 2.024700 0.000000 2.024700
 2.024700 2.024700 0.000000
ATOMIC_SPECIES
 Al 26.981539 Al.pz-n-nc.UPF
ATOMIC_POSITIONS crystal
 Al 0.000000 0.000000 0.000000
K_POINTS automatic
 8 8 8 0 0 0
